NAME : single
TYPE : ATSP
DIMENSION : 13
EDGE_WEIGHT_TYPE : EXPLICIT
EDGE_WEIGHT_FORMAT : FULL_MATRIX
EDGE_WEIGHT_SECTION
0 845 869 706 736 669 933 627 290 137 137 342 378 
0 0 424 360 372 387 175 239 604 531 563 655 686 
0 424 0 235 234 298 452 298 590 535 566 635 664 
0 360 235 0 0 213 425 140 515 491 507 616 648 
0 372 234 213 0 0 460 246 552 516 552 640 674 
0 387 298 286 100 0 453 155 390 462 499 587 621 
0 175 452 425 460 453 0 531 707 603 664 715 747 
0 239 298 140 246 155 305 0 415 376 403 494 524 
0 604 590 515 552 390 707 415 0 152 172 193 254 
0 531 535 491 516 462 603 376 152 0 0 0 275 
0 563 566 507 552 499 664 403 172 275 0 122 173 
0 655 635 616 640 587 715 494 193 254 122 0 0 
0 686 664 648 674 621 747 524 254 154 173 152 0 
